Speck32/MILP/sol/6Round_201.sol
# Objective value = 15.999999999999996
pro0Rd0 -0.0
pro1Rd0 0.0
pro2Rd0 -0.0
pro3Rd0 1.3322676295501878e-15
pro4Rd0 -0.0
pro5Rd0 -0.0
pro6Rd0 -0.0
pro7Rd0 0.9999999999999991
pro8Rd0 1.0
pro9Rd0 1.0
pro10Rd0 -0.0
pro11Rd0 -0.0
pro12Rd0 -0.0
pro13Rd0 0.0
pro14Rd0 1.0
pro0Rd1 0.0
pro1Rd1 -0.0
pro2Rd1 -0.0
pro3Rd1 0.0
pro4Rd1 0.0
pro5Rd1 1.0
pro6Rd1 -0.0
pro7Rd1 -1.3877787807814457e-16
pro8Rd1 -0.0
pro9Rd1 -8.378714388967978e-16
pro10Rd1 6.661338147750939e-16
pro11Rd1 1.0000000000000016
pro12Rd1 1.0
pro13Rd1 1.0
pro14Rd1 1.0
pro0Rd2 1.4536982728685643e-15
pro1Rd2 1.0
pro2Rd2 1.0
pro3Rd2 1.0
pro4Rd2 -5.551115123125783e-17
pro5Rd2 -0.0
pro6Rd2 -0.0
pro7Rd2 0.0
pro8Rd2 -0.0
pro9Rd2 0.0
pro10Rd2 -0.0
pro11Rd2 -0.0
pro12Rd2 -0.0
pro13Rd2 -0.0
pro14Rd2 -9.71445146547012e-17
pro0Rd3 -1.3253287356462806e-15
pro1Rd3 -4.6629367034256575e-15
pro2Rd3 -4.6629367034256575e-15
pro3Rd3 -1.970645868709653e-15
pro4Rd3 -1.9984014443252818e-15
pro5Rd3 -0.0
pro6Rd3 -7.73686670285656e-16
pro7Rd3 1.1102230246251565e-16
pro8Rd3 1.0
pro9Rd3 -0.0
pro10Rd3 -0.0
pro11Rd3 -2.220446049250313e-16
pro12Rd3 -0.0
pro13Rd3 -0.0
pro14Rd3 -0.0
pro0Rd4 2.6367796834847468e-15
pro1Rd4 2.220446049250313e-16
pro2Rd4 -0.0
pro3Rd4 0.0
pro4Rd4 0.0
pro5Rd4 -3.694961003830599e-16
pro6Rd4 6.591949208711867e-16
pro7Rd4 -2.5118795932144167e-15
pro8Rd4 1.0000000000000044
pro9Rd4 4.218847493575595e-15
pro10Rd4 -2.7755575615628914e-16
pro11Rd4 1.8735013540549517e-15
pro12Rd4 -3.219646771412954e-15
pro13Rd4 -0.0
pro14Rd4 -1.3877787807814457e-15
pro0Rd5 -0.0
pro1Rd5 4.163336342344337e-16
pro2Rd5 -0.0
pro3Rd5 3.3306690738754696e-16
pro4Rd5 -0.0
pro5Rd5 -0.0
pro6Rd5 1.000000000000001
pro7Rd5 -0.0
pro8Rd5 1.0000000000000002
pro9Rd5 -0.0
pro10Rd5 -0.0
pro11Rd5 -0.0
pro12Rd5 -0.0
pro13Rd5 -0.0
pro14Rd5 -1.1622647289044608e-16
p0 -4.440892098500626e-16
p1 -4.440892098500626e-16
p2 1.0
p3 1.0
p4 0.0
p5 0.0
p6 -0.0
p7 0.0
p8 1.0
p9 1.0
p10 0.0
p11 0.0
p12 -0.0
p13 -7.771561172376096e-16
p14 -0.0
p15 1.3322676295501878e-15
p16 1.0
p17 -2.7755575615628914e-16
p18 0.0
p19 -2.7755575615628914e-16
p20 0.0
p21 -1.4432899320127035e-15
p22 1.3322676295501878e-15
p23 -4.440892098500626e-16
p24 0.9999999999999987
p25 -0.0
p26 1.0
p27 0.0
p28 0.0
p29 0.0
p30 0.0
p31 7.771561172376096e-16
p0Rd1 0.0
p16Rd1 -0.0
temp0Rnd0 0.0
p1Rd1 -2.7755575615628914e-16
p17Rd1 0.0
temp1Rnd0 -2.7755575615628914e-16
p2Rd1 0.0
p18Rd1 0.0
temp2Rnd0 0.0
p3Rd1 -1.1657341758564144e-15
p19Rd1 0.0
temp3Rnd0 -1.4432899320127035e-15
p4Rd1 1.3322676295501878e-15
p20Rd1 -0.0
temp4Rnd0 1.3322676295501878e-15
p5Rd1 -4.440892098500626e-16
p21Rd1 -0.0
temp5Rnd0 -4.440892098500626e-16
p6Rd1 1.3322676295501878e-15
p22Rd1 1.0
temp6Rnd0 1.0
p7Rd1 -4.440892098500626e-16
p23Rd1 -5.551115123125783e-17
temp7Rnd0 -1.6653345369377348e-16
p8Rd1 1.0
p24Rd1 0.0
temp8Rnd0 1.0
p9Rd1 0.0
p25Rd1 0.0
temp9Rnd0 0.0
p10Rd1 0.0
p26Rd1 -8.378714388967978e-16
temp10Rnd0 -4.605690828718423e-16
p11Rd1 -0.0
p27Rd1 -0.0
temp11Rnd0 -0.0
p12Rd1 -0.0
p28Rd1 -1.6757428777935957e-15
temp12Rnd0 -7.632783294297951e-16
p13Rd1 0.0
p29Rd1 6.661338147750939e-16
temp13Rnd0 4.996003610813204e-16
p14Rd1 0.0
p30Rd1 1.0
temp14Rnd0 1.0
p15Rd1 1.0000000000000002
p31Rd1 1.0
temp15Rnd0 1.0
temp0 1.0
p0Rd2 0.0
p16Rd2 0.0
temp0Rnd1 -0.0
p1Rd2 0.0
p17Rd2 7.216449660063518e-16
temp1Rnd1 0.0
p2Rd2 0.0
p18Rd2 -0.0
temp2Rnd1 -0.0
p3Rd2 0.0
p19Rd2 0.0
temp3Rnd1 0.0
p4Rd2 -0.0
p20Rd2 1.0
temp4Rnd1 1.0
p5Rd2 0.0
p21Rd2 -0.0
temp5Rnd1 -5.551115123125783e-17
p6Rd2 -0.0
p22Rd2 0.0
temp6Rnd1 0.0
p7Rd2 0.0
p23Rd2 -0.0
temp7Rnd1 0.0
p8Rd2 -1.3877787807814457e-16
p24Rd2 0.0
temp8Rnd1 -1.6653345369377348e-16
p9Rd2 0.0
p25Rd2 0.0
temp9Rnd1 0.0
p10Rd2 -1.6757428777935957e-15
p26Rd2 0.0
temp10Rnd1 -1.6757428777935957e-15
p11Rd2 6.661338147750939e-16
p27Rd2 0.0
temp11Rnd1 6.661338147750939e-16
p12Rd2 1.0
p28Rd2 0.0
temp12Rnd1 1.0
p13Rd2 1.0
p29Rd2 0.0
temp13Rnd1 1.0
p14Rd2 0.0
p30Rd2 -0.0
temp14Rnd1 0.0
p15Rd2 0.0
p31Rd2 0.0
temp15Rnd1 0.0
temp1 1.0
p0Rd3 -7.73686670285656e-16
p16Rd3 -7.73686670285656e-16
temp0Rnd2 -7.73686670285656e-16
p1Rd3 -2.546574062733953e-15
p17Rd3 -1.3253287356462806e-15
temp1Rnd2 -2.0521778720805628e-15
p2Rd3 1.0
p18Rd3 -0.0
temp2Rnd2 1.0
p3Rd3 -0.0
p19Rd3 -5.551115123125783e-17
temp3Rnd2 -5.551115123125783e-17
p4Rd3 0.0
p20Rd3 -0.0
temp4Rnd2 0.0
p5Rd3 -2.220446049250313e-16
p21Rd3 -1.9984014443252818e-15
temp5Rnd2 -9.71445146547012e-16
p6Rd3 -0.0
p22Rd3 -0.0
temp6Rnd2 0.0
p7Rd3 -0.0
p23Rd3 -0.0
temp7Rnd2 0.0
p8Rd3 0.0
p24Rd3 -3.1086244689504383e-15
temp8Rnd2 -1.5543122344752192e-15
p9Rd3 -0.0
p25Rd3 -0.0
temp9Rnd2 0.0
p10Rd3 -0.0
p26Rd3 0.0
temp10Rnd2 0.0
p11Rd3 -0.0
p27Rd3 0.0
temp11Rnd2 0.0
p12Rd3 0.0
p28Rd3 -0.0
temp12Rnd2 -0.0
p13Rd3 -0.0
p29Rd3 0.0
temp13Rnd2 0.0
p14Rd3 0.0
p30Rd3 -0.0
temp14Rnd2 -0.0
p15Rd3 0.0
p31Rd3 -0.0
temp15Rnd2 3.3306690738754696e-16
temp2 -9.71445146547012e-17
p0Rd4 4.423544863740858e-16
p16Rd4 4.423544863740858e-16
temp0Rnd3 4.423544863740858e-16
p1Rd4 -2.6506574712925612e-15
p17Rd4 2.6367796834847468e-15
temp1Rnd3 -5.551115123125783e-17
p2Rd4 -4.6629367034256575e-15
p18Rd4 2.220446049250313e-16
temp2Rnd3 -2.4980018054066022e-15
p3Rd4 -2.886579864025407e-15
p19Rd4 4.9404924595819466e-15
temp3Rnd3 -0.0
p4Rd4 -1.970645868709653e-15
p20Rd4 -0.0
temp4Rnd3 -8.187894806610529e-16
p5Rd4 -0.0
p21Rd4 0.0
temp5Rnd3 0.0
p6Rd4 -3.219646771412954e-15
p22Rd4 -3.694961003830599e-16
temp6Rnd3 -3.1086244689504383e-15
p7Rd4 -7.73686670285656e-16
p23Rd4 -7.73686670285656e-16
temp7Rnd3 -7.73686670285656e-16
p8Rd4 -2.9698465908722937e-15
p24Rd4 -2.9698465908722937e-15
temp8Rnd3 -2.9698465908722937e-15
p9Rd4 1.0
p25Rd4 1.0
temp9Rnd3 1.0
p10Rd4 -0.0
p26Rd4 -0.0
temp10Rnd3 0.0
p11Rd4 -0.0
p27Rd4 -0.0
temp11Rnd3 0.0
p12Rd4 -2.220446049250313e-16
p28Rd4 -2.220446049250313e-16
temp12Rnd3 -2.220446049250313e-16
p13Rd4 -0.0
p29Rd4 -0.0
temp13Rnd3 0.0
p14Rd4 0.0
p30Rd4 -7.73686670285656e-16
temp14Rnd3 -7.73686670285656e-16
p15Rd4 -0.0
p31Rd4 1.6653345369377348e-15
temp15Rnd3 1.3183898417423734e-16
temp3 0.0
p0Rd5 0.9999999999999998
p16Rd5 1.0
temp0Rnd4 1.0
p1Rd5 -0.0
p17Rd5 -0.0
temp1Rnd4 2.6367796834847468e-15
p2Rd5 -0.0
p18Rd5 0.0
temp2Rnd4 0.0
p3Rd5 4.9404924595819466e-15
p19Rd5 -0.0
temp3Rnd4 1.3322676295501878e-15
p4Rd5 2.3869795029440866e-15
p20Rd5 -2.7755575615628914e-15
temp4Rnd4 2.3869795029440866e-15
p5Rd5 -5.637851296924623e-16
p21Rd5 1.1622647289044608e-16
temp5Rnd4 -4.510281037539698e-16
p6Rd5 -7.389922007661198e-16
p22Rd5 -1.3877787807814457e-15
temp6Rnd4 -2.4147350785597155e-15
p7Rd5 -1.1622647289044608e-16
p23Rd5 1.0000000000000002
temp7Rnd4 1.0
p8Rd5 -1.1622647289044608e-16
p24Rd5 0.0
temp8Rnd4 8.066464163292153e-17
p9Rd5 1.0000000000000002
p25Rd5 1.0
temp9Rnd4 1.0000000000000002
p10Rd5 -2.4424906541753444e-15
p26Rd5 4.9404924595819466e-15
temp10Rnd4 1.5126788710517758e-15
p11Rd5 -2.7755575615628914e-16
p27Rd5 2.3869795029440866e-15
temp11Rnd4 1.0547118733938987e-15
p12Rd5 -1.9012569296705806e-15
p28Rd5 -4.3255329873481685e-15
temp12Rnd4 -3.427813588530171e-15
p13Rd5 -3.219646771412954e-15
p29Rd5 3.694961003830599e-16
temp13Rnd4 -5.551115123125783e-16
p14Rd5 1.1622647289044608e-16
p30Rd5 -4.649058915617843e-16
temp14Rnd4 1.1622647289044608e-16
p15Rd5 -1.3877787807814457e-15
p31Rd5 -1.1622647289044608e-16
temp15Rnd4 4.718447854656915e-16
temp4 -1.3877787807814457e-15
p0Rd6 -0.0
p16Rd6 2.220446049250313e-16
temp0Rnd5 2.220446049250313e-16
p1Rd6 4.440892098500626e-16
p17Rd6 -0.0
temp1Rnd5 3.3306690738754696e-16
p2Rd6 7.216449660063518e-16
p18Rd6 3.712308238590367e-15
temp2Rnd5 7.216449660063518e-16
p3Rd6 -1.9012569296705806e-15
p19Rd6 2.0261570199409107e-15
temp3Rnd5 1.1622647289044608e-16
p4Rd6 -2.275957200481571e-15
p20Rd6 -0.0
temp4Rnd5 -1.3877787807814457e-15
p5Rd6 1.1622647289044608e-16
p21Rd6 1.0
temp5Rnd5 1.0000000000000002
p6Rd6 -1.3877787807814457e-15
p22Rd6 -1.27675647831893e-15
temp6Rnd5 -1.3877787807814457e-15
p7Rd6 -0.0
p23Rd6 1.0000000000000004
temp7Rnd5 1.0000000000000002
p8Rd6 0.0
p24Rd6 5.384581669432009e-15
temp8Rnd5 5.384581669432009e-15
p9Rd6 0.9999999999999973
p25Rd6 1.0
temp9Rnd5 1.0
p10Rd6 4.9404924595819466e-15
p26Rd6 1.2934098236883074e-14
temp10Rnd5 7.716050021144838e-15
p11Rd6 6.386384476808615e-15
p27Rd6 6.949302244763089e-15
temp11Rnd5 6.949302244763089e-15
p12Rd6 -0.0
p28Rd6 4.649058915617843e-16
temp12Rnd5 0.0
p13Rd6 3.694961003830599e-16
p29Rd6 -2.7755575615628914e-16
temp13Rnd5 -1.1622647289044608e-16
p14Rd6 -1.3010426069826053e-16
p30Rd6 1.0000000000000002
temp14Rnd5 1.0
p15Rd6 -1.1622647289044608e-16
p31Rd6 2.411265631607762e-16
temp15Rnd5 0.0
temp5 -1.7867651802561113e-16
